100
150
99
99
99
99
98
97
97
92
92
91
91
90
89
89
88
88
88
86
85
84
83
83
81
80
80
80
80
80
79
79
78
77
77
77
77
76
76
75
74
72
72
72
71
70
69
69
69
67
67
66
66
66
66
65
64
61
60
59
59
59
58
57
56
56
54
53
52
51
51
51
50
50
50
50
49
48
48
47
47
47
45
43
43
43
42
41
41
38
37
37
36
35
33
32
32
32
31
31
30
30
